658,258
681,166
414,542
491,32
948,270
778,336
415,213
524,891
463,564
311,286
681,46
504,753
857,648
690,434
351,406
829,554
609,458
705,389
914,173
618,469
361,569
491,32
1006,355
414,270
655,393
874,672
